(declare-const X String)
; (([\w|\.]*)\s*={1}\s*(.*?))$
(assert (not (str.in.re X (re.++ (str.to.re "\x0a") (re.* (re.union (str.to.re "|") (str.to.re ".") (re.range "0" "9") (re.range "A" "Z") (re.range "a" "z") (str.to.re "_"))) (re.* (re.union (str.to.re " ") (str.to.re "\x09") (str.to.re "\x0a") (str.to.re "\x0c") (str.to.re "\x0d"))) ((_ re.loop 1 1) (str.to.re "=")) (re.* (re.union (str.to.re " ") (str.to.re "\x09") (str.to.re "\x0a") (str.to.re "\x0c") (str.to.re "\x0d"))) (re.* re.allchar)))))
(check-sat)
